(set-logic HORN)
(set-info :source |
    Benchmark: C_VC
    Output by Princess (http://www.philipp.ruemmer.org/princess.shtml)
|)
(set-info :status sat)
(declare-heap Heap Addr HeapObject
 defObj
 ((HeapObject 0)) (
  (
   (O_Int (getInt Int))
   (O_UInt (getUInt Int))
   (O_Addr (getAddr Addr))
   (defObj)
  )
))
(declare-fun inv_main13 (Heap AddrRange Int Int Int) Bool)
(declare-fun inv_main15 (Heap AddrRange Int Int) Bool)
(declare-fun inv_main18 (Heap AddrRange Int Int Int) Bool)
(declare-fun inv_main19 (Heap AddrRange Int Int Int) Bool)
(declare-fun inv_main3 (Heap AddrRange) Bool)
(assert (forall ((var0 AddrRange) (var1 Int) (var2 Heap) (var3 Heap)) (or (not (and (and (= var3 emptyHeap) (= var2 (newBatchHeap (batchAlloc emptyHeap (O_Int var1) 100000)))) (= var0 (newAddrRange (batchAlloc emptyHeap (O_Int var1) 100000))))) (inv_main3 var2 var0))))
(assert (forall ((var0 Int) (var1 Int) (var2 Int) (var3 AddrRange) (var4 Int) (var5 Heap) (var6 Int) (var7 Int) (var8 Int) (var9 Int) (var10 AddrRange) (var11 Heap)) (or (not (and (inv_main13 var11 var10 var9 var8 var7) (and (and (<= 0 (+ (+ 100000 (* (- 1) (+ var6 1))) (- 1))) (and (and (is-O_Int (read var11 (nthAddrRange var10 var7))) (is-O_Int (read var11 (nthAddrRange var10 var7)))) (and (and (and (and (= var5 (write var11 (nthAddrRange var10 var7) (O_Int var4))) (= var3 var10)) (= var2 var9)) (= var1 var8)) (= var6 var7)))) (= var0 (+ var6 1))))) (inv_main13 var5 var3 var2 var1 var0))))
(assert (forall ((var0 Int) (var1 Int) (var2 Int) (var3 AddrRange) (var4 Heap)) (or (not (and (inv_main3 var4 var3) (= var2 0))) (inv_main13 var4 var3 var1 var0 var2))))
(assert (forall ((var0 Int) (var1 Int) (var2 AddrRange) (var3 Heap) (var4 Int) (var5 Int) (var6 Int) (var7 Int) (var8 Int) (var9 AddrRange) (var10 Heap)) (or (not (and (inv_main18 var10 var9 var8 var7 var6) (and (and (= var5 var4) (is-O_Int (read var10 (nthAddrRange var9 var6)))) (and (and (and (and (and (= var3 var10) (= var2 var9)) (= var4 var8)) (= var1 var7)) (= var0 var6)) (= var5 (getInt (read var10 (nthAddrRange var9 var6)))))))) (inv_main19 var3 var2 var4 var1 var0))))
(assert (forall ((var0 Int) (var1 AddrRange) (var2 Int) (var3 Heap) (var4 Int) (var5 Int) (var6 Int) (var7 Int) (var8 Int) (var9 AddrRange) (var10 Heap)) (or (not (and (inv_main13 var10 var9 var8 var7 var6) (and (and (<= 0 var5) (<= 0 (+ (+ 100000 (* (- 1) var5)) (- 1)))) (and (not (<= 0 (+ (+ 100000 (* (- 1) (+ var4 1))) (- 1)))) (and (and (is-O_Int (read var10 (nthAddrRange var9 var6))) (is-O_Int (read var10 (nthAddrRange var9 var6)))) (and (and (and (and (= var3 (write var10 (nthAddrRange var9 var6) (O_Int var2))) (= var1 var9)) (= var0 var8)) (= var5 var7)) (= var4 var6))))))) (inv_main15 var3 var1 var0 var5))))
(assert (forall ((var0 Int) (var1 Int) (var2 Int) (var3 AddrRange) (var4 Heap) (var5 Int) (var6 Int) (var7 Int) (var8 Int) (var9 Int) (var10 AddrRange) (var11 Heap)) (or (not (and (inv_main18 var11 var10 var9 var8 var7) (and (and (and (not (= var6 var5)) (is-O_Int (read var11 (nthAddrRange var10 var7)))) (and (and (and (and (and (= var4 var11) (= var3 var10)) (= var5 var9)) (= var2 var8)) (= var1 var7)) (= var6 (getInt (read var11 (nthAddrRange var10 var7)))))) (= var0 (+ var1 1))))) (inv_main18 var4 var3 var5 var2 var0))))
(assert (forall ((var0 Int) (var1 Int) (var2 Int) (var3 AddrRange) (var4 Heap) (var5 Int) (var6 Int) (var7 AddrRange) (var8 Heap)) (or (not (and (inv_main15 var8 var7 var6 var5) (and (and (and (is-O_Int (read var8 (nthAddrRange var7 var5))) (is-O_Int (read var8 (nthAddrRange var7 var5)))) (and (and (and (= var4 (write var8 (nthAddrRange var7 var5) (O_Int var6))) (= var3 var7)) (= var2 var6)) (= var1 var5))) (= var0 0)))) (inv_main18 var4 var3 var2 var1 var0))))
(assert (forall ((var0 Int) (var1 Int) (var2 Int) (var3 AddrRange) (var4 Heap)) (not (and (inv_main13 var4 var3 var2 var1 var0) (not (is-O_Int (read var4 (nthAddrRange var3 var0))))))))
(assert (forall ((var0 Int) (var1 Int) (var2 Int) (var3 AddrRange) (var4 Heap)) (not (and (inv_main13 var4 var3 var2 var1 var0) (and (is-O_Int (read var4 (nthAddrRange var3 var0))) (not (within var3 (nthAddrRange var3 var0))))))))
(assert (forall ((var0 Int) (var1 Int) (var2 Int) (var3 AddrRange) (var4 Heap)) (not (and (inv_main13 var4 var3 var2 var1 var0) (and (is-O_Int (read var4 (nthAddrRange var3 var0))) (not (is-O_Int (read var4 (nthAddrRange var3 var0)))))))))
(assert (forall ((var0 Int) (var1 Int) (var2 AddrRange) (var3 Heap)) (not (and (inv_main15 var3 var2 var1 var0) (not (is-O_Int (read var3 (nthAddrRange var2 var0))))))))
(assert (forall ((var0 Int) (var1 Int) (var2 AddrRange) (var3 Heap)) (not (and (inv_main15 var3 var2 var1 var0) (and (is-O_Int (read var3 (nthAddrRange var2 var0))) (not (within var2 (nthAddrRange var2 var0))))))))
(assert (forall ((var0 Int) (var1 Int) (var2 AddrRange) (var3 Heap)) (not (and (inv_main15 var3 var2 var1 var0) (and (is-O_Int (read var3 (nthAddrRange var2 var0))) (not (is-O_Int (read var3 (nthAddrRange var2 var0)))))))))
(assert (forall ((var0 Int) (var1 Int) (var2 Int) (var3 AddrRange) (var4 Heap)) (not (and (inv_main18 var4 var3 var2 var1 var0) (not (is-O_Int (read var4 (nthAddrRange var3 var0))))))))
(assert (forall ((var0 Int) (var1 Int) (var2 Int) (var3 AddrRange) (var4 Heap)) (not (and (inv_main18 var4 var3 var2 var1 var0) (and (is-O_Int (read var4 (nthAddrRange var3 var0))) (not (within var3 (nthAddrRange var3 var0))))))))
(assert (forall ((var0 Int) (var1 Int) (var2 Int) (var3 AddrRange) (var4 Heap)) (not (and (inv_main19 var4 var3 var2 var1 var0) (not (<= 0 (+ var1 (* (- 1) var0))))))))
(check-sat)
